10	5
0	5	3	5	4	1	2
1	1	8
2	1	7
3	1	8
4	1	9
5	1	8
6	1	10
7	2	6	9
8	1	11
9	1	11
10	1	11
11	0
0	0	0	0	0	0	0
1	9	1	1	4	4	4
2	9	4	3	5	3	4
3	5	5	5	2	4	5
4	6	5	5	2	2	5
5	3	1	2	4	3	4
6	4	1	2	4	2	1
7	3	1	4	1	5	5
8	1	5	5	4	4	4
9	6	4	2	5	2	5
10	6	2	4	5	5	2
11	0	0	0	0	0	0
5	5	5	5	5
